125876
66,59,44,10,27,28,87,1,58,76,89,93,12,92,23,80,57,9,19,42,81,86,46,77,6,69,98,106,8,97,55,29,30,5,52,65,31,13,88,40,56,20,16,64,90,17,21,22,62,25,45,72,2,73,48,85,11,41,67,95,54,71,36,39,33,82,51,100,99,68,50,26,34,83,74,102,24,43,79,91,15,4,61,14,47,103,35,75,32,63,53,84,7,18,49,37,70,101,38,104,105,3,94,78,96,60